
630.0
690.0
630.0
630.0
630.0
630.0
630.0
630.0
630.0
630.0
630.0
630.0
630.0
630.0
630.0
630.0
630.0
630.0
750.0
630.0
630.0
630.0
630.0
630.0
630.0
630.0
630.0
630.0
630.0
630.0
630.0
630.0
630.0
630.0
630.0
1020.0
630.0
630.0
630.0
900.0
630.0
630.0
630.0
630.0
630.0
630.0
630.0
630.0
630.0
630.0